NAME: concorde91
TYPE: TSP
DIMENSION: 25 
EDGE_WEIGHT_TYPE: EUC_2D
NODE_COORD_SECTION
1 66 77
2 63 33
3 86 39
4 78 4
5 84 36
6 9 57
7 46 69
8 60 98
9 92 70
10 99 1
11 3 54
12 58 84
13 74 81
14 25 8
15 30 24
16 74 97
17 91 3
18 21 92
19 36 73
20 45 20
21 91 84
22 39 40
23 52 39
24 12 47
25 3 58
